
===== New CPLEX run =====
Instance: /home/yorig/tuner/mpils-tests/instances/miplib/medium-1/neos-3555904-turama.mps
Config: /scratch/yorig/mpils-results-grid-seconds-10-no-mip-start/medium-1/4proc/seed-5/10_neos-3555904-turama_seed-5_20260503_050237/expansion/config_param_CPXPARAM_MIP_Strategy_HeuristicFreq_500_iter_2.prm
========================

Selected objective sense:  MINIMIZE
Selected objective  name:  Obj
Selected RHS        name:  RHS
Selected bound      name:  Bound
Version identifier: 22.1.2.0 | 2024-11-26 | 0edbb82fd
CPXPARAM_Threads                                 8
CPXPARAM_Parallel                                1
CPXPARAM_Emphasis_MIP                            5
CPXPARAM_MIP_Strategy_HeuristicFreq              500
CPXPARAM_TimeLimit                               10
Tried aggregator 3 times.
MIP Presolve eliminated 88266 rows and 7696 columns.
MIP Presolve modified 93290 coefficients.
Aggregator did 11080 substitutions.
Reduced MIP has 47145 rows, 18685 columns, and 201232 nonzeros.
Reduced MIP has 18685 binaries, 0 generals, 0 SOSs, and 0 indicators.
Presolve time = 0.84 sec. (1435.97 ticks)
Found incumbent of value -33.200000 after 1.05 sec. (1819.77 ticks)
Probing fixed 2456 vars, tightened 0 bounds.
Probing changed sense of 6 constraints.
Probing time = 1.14 sec. (1226.29 ticks)
Tried aggregator 2 times.
MIP Presolve eliminated 9109 rows and 2642 columns.
MIP Presolve modified 5050 coefficients.
Aggregator did 410 substitutions.
Reduced MIP has 37623 rows, 15633 columns, and 145869 nonzeros.
Reduced MIP has 15633 binaries, 0 generals, 0 SOSs, and 0 indicators.
Presolve time = 0.32 sec. (568.73 ticks)
Probing fixed 494 vars, tightened 0 bounds.
Probing time = 0.56 sec. (600.78 ticks)
Tried aggregator 2 times.
Detecting symmetries...
MIP Presolve eliminated 3147 rows and 660 columns.
MIP Presolve modified 588 coefficients.
Aggregator did 651 substitutions.
Reduced MIP has 33825 rows, 14322 columns, and 131337 nonzeros.
Reduced MIP has 14322 binaries, 0 generals, 0 SOSs, and 0 indicators.
Presolve time = 0.29 sec. (517.68 ticks)
Probing time = 0.02 sec. (16.92 ticks)
Clique table members: 87904.
MIP emphasis: heuristic.
MIP search method: dynamic search.
Parallel mode: deterministic, using up to 8 threads.
Root relaxation solution time = 1.15 sec. (1414.56 ticks)

        Nodes                                         Cuts/
   Node  Left     Objective  IInf  Best Integer    Best Bound    ItCnt     Gap

*     0+    0                          -33.2000   -27044.9000              --- 
      0     0      -40.9500    62      -33.2000      -40.9500    14915   23.34%
*     0+   -1                          -34.7000      -40.9500            18.01%
      0     0  -1.00000e+75     0      -34.7000      -40.9500    14915   18.01%
Advanced basis not built.

Root node processing (before b&c):
  Real time             =   10.01 sec. (15065.48 ticks)
Parallel b&c, 8 threads:
  Real time             =    0.00 sec. (0.00 ticks)
  Sync time (average)   =    0.00 sec.
  Wait time (average)   =    0.00 sec.
                          ------------
Total (root+branch&cut) =   10.01 sec. (15065.48 ticks)
Gap: 18.01%
Upper bound: -34.7
Lower bound: -40.95
End of CPLEX run. Time: 10.0165 seconds

===== New CPLEX run =====
Instance: /home/yorig/tuner/mpils-tests/instances/miplib/medium-1/neos-3555904-turama.mps
Config: /scratch/yorig/mpils-results-grid-seconds-10-no-mip-start/medium-1/4proc/seed-5/10_neos-3555904-turama_seed-5_20260503_050237/expansion/config_param_CPXPARAM_MIP_Strategy_HeuristicFreq_1000_iter_2.prm
========================

Selected objective sense:  MINIMIZE
Selected objective  name:  Obj
Selected RHS        name:  RHS
Selected bound      name:  Bound
Version identifier: 22.1.2.0 | 2024-11-26 | 0edbb82fd
CPXPARAM_Threads                                 8
CPXPARAM_Parallel                                1
CPXPARAM_Emphasis_MIP                            5
CPXPARAM_MIP_Strategy_HeuristicFreq              1000
CPXPARAM_TimeLimit                               10
Tried aggregator 3 times.
MIP Presolve eliminated 88266 rows and 7696 columns.
MIP Presolve modified 93290 coefficients.
Aggregator did 11080 substitutions.
Reduced MIP has 47145 rows, 18685 columns, and 201232 nonzeros.
Reduced MIP has 18685 binaries, 0 generals, 0 SOSs, and 0 indicators.
Presolve time = 0.83 sec. (1435.97 ticks)
Found incumbent of value -33.200000 after 1.05 sec. (1819.77 ticks)
Probing fixed 2456 vars, tightened 0 bounds.
Probing changed sense of 6 constraints.
Probing time = 1.16 sec. (1226.29 ticks)
Tried aggregator 2 times.
MIP Presolve eliminated 9109 rows and 2642 columns.
MIP Presolve modified 5050 coefficients.
Aggregator did 410 substitutions.
Reduced MIP has 37623 rows, 15633 columns, and 145869 nonzeros.
Reduced MIP has 15633 binaries, 0 generals, 0 SOSs, and 0 indicators.
Presolve time = 0.32 sec. (568.73 ticks)
Probing fixed 494 vars, tightened 0 bounds.
Probing time = 0.56 sec. (600.78 ticks)
Tried aggregator 2 times.
Detecting symmetries...
MIP Presolve eliminated 3147 rows and 660 columns.
MIP Presolve modified 588 coefficients.
Aggregator did 651 substitutions.
Reduced MIP has 33825 rows, 14322 columns, and 131337 nonzeros.
Reduced MIP has 14322 binaries, 0 generals, 0 SOSs, and 0 indicators.
Presolve time = 0.29 sec. (517.68 ticks)
Probing time = 0.02 sec. (16.92 ticks)
Clique table members: 87904.
MIP emphasis: heuristic.
MIP search method: dynamic search.
Parallel mode: deterministic, using up to 8 threads.
Root relaxation solution time = 1.15 sec. (1414.56 ticks)

        Nodes                                         Cuts/
   Node  Left     Objective  IInf  Best Integer    Best Bound    ItCnt     Gap

*     0+    0                          -33.2000   -27044.9000              --- 
      0     0      -40.9500    62      -33.2000      -40.9500    14915   23.34%
*     0+   -1                          -34.7000      -40.9500            18.01%
      0     0  -1.00000e+75     0      -34.7000      -40.9500    14915   18.01%
Advanced basis not built.

Root node processing (before b&c):
  Real time             =   10.01 sec. (15093.14 ticks)
Parallel b&c, 8 threads:
  Real time             =    0.00 sec. (0.00 ticks)
  Sync time (average)   =    0.00 sec.
  Wait time (average)   =    0.00 sec.
                          ------------
Total (root+branch&cut) =   10.01 sec. (15093.14 ticks)
Gap: 18.01%
Upper bound: -34.7
Lower bound: -40.95
End of CPLEX run. Time: 10.0166 seconds

===== New CPLEX run =====
Instance: /home/yorig/tuner/mpils-tests/instances/miplib/medium-1/neos-3555904-turama.mps
Config: /scratch/yorig/mpils-results-grid-seconds-10-no-mip-start/medium-1/4proc/seed-5/10_neos-3555904-turama_seed-5_20260503_050237/expansion/config_param_CPXPARAM_MIP_Strategy_StartAlgorithm_1_iter_2.prm
========================

Selected objective sense:  MINIMIZE
Selected objective  name:  Obj
Selected RHS        name:  RHS
Selected bound      name:  Bound
Version identifier: 22.1.2.0 | 2024-11-26 | 0edbb82fd
CPXPARAM_Threads                                 8
CPXPARAM_Parallel                                1
CPXPARAM_MIP_Strategy_StartAlgorithm             1
CPXPARAM_Emphasis_MIP                            5
CPXPARAM_TimeLimit                               10
Tried aggregator 3 times.
MIP Presolve eliminated 88266 rows and 7696 columns.
MIP Presolve modified 93290 coefficients.
Aggregator did 11080 substitutions.
Reduced MIP has 47145 rows, 18685 columns, and 201232 nonzeros.
Reduced MIP has 18685 binaries, 0 generals, 0 SOSs, and 0 indicators.
Presolve time = 0.83 sec. (1435.97 ticks)
Found incumbent of value -33.200000 after 1.05 sec. (1819.77 ticks)
Probing fixed 2456 vars, tightened 0 bounds.
Probing changed sense of 6 constraints.
Probing time = 1.14 sec. (1226.29 ticks)
Tried aggregator 2 times.
MIP Presolve eliminated 9109 rows and 2642 columns.
MIP Presolve modified 5050 coefficients.
Aggregator did 410 substitutions.
Reduced MIP has 37623 rows, 15633 columns, and 145869 nonzeros.
Reduced MIP has 15633 binaries, 0 generals, 0 SOSs, and 0 indicators.
Presolve time = 0.32 sec. (568.73 ticks)
Probing fixed 494 vars, tightened 0 bounds.
Probing time = 0.55 sec. (600.78 ticks)
Tried aggregator 2 times.
Detecting symmetries...
MIP Presolve eliminated 3147 rows and 660 columns.
MIP Presolve modified 588 coefficients.
Aggregator did 651 substitutions.
Reduced MIP has 33825 rows, 14322 columns, and 131337 nonzeros.
Reduced MIP has 14322 binaries, 0 generals, 0 SOSs, and 0 indicators.
Presolve time = 0.29 sec. (517.68 ticks)
Probing time = 0.02 sec. (18.62 ticks)
Clique table members: 87904.
MIP emphasis: heuristic.
MIP search method: dynamic search.
Parallel mode: deterministic, using up to 8 threads.
Root relaxation solution time = 0.91 sec. (1317.74 ticks)

        Nodes                                         Cuts/
   Node  Left     Objective  IInf  Best Integer    Best Bound    ItCnt     Gap

*     0+    0                          -33.2000   -27044.9000              --- 
      0     0      -40.9500    62      -33.2000      -40.9500    14915   23.34%
*     0+   -1                          -34.7000      -40.9500            18.01%
      0     0  -1.00000e+75     0      -34.7000      -40.9500    14915   18.01%
Advanced basis not built.

Root node processing (before b&c):
  Real time             =   10.01 sec. (15395.22 ticks)
Parallel b&c, 8 threads:
  Real time             =    0.00 sec. (0.00 ticks)
  Sync time (average)   =    0.00 sec.
  Wait time (average)   =    0.00 sec.
                          ------------
Total (root+branch&cut) =   10.01 sec. (15395.22 ticks)
Gap: 18.01%
Upper bound: -34.7
Lower bound: -40.95
End of CPLEX run. Time: 10.0166 seconds

===== New CPLEX run =====
Instance: /home/yorig/tuner/mpils-tests/instances/miplib/medium-1/neos-3555904-turama.mps
Config: /scratch/yorig/mpils-results-grid-seconds-10-no-mip-start/medium-1/4proc/seed-5/10_neos-3555904-turama_seed-5_20260503_050237/expansion/config_param_CPXPARAM_MIP_Strategy_StartAlgorithm_2_iter_2.prm
========================

Selected objective sense:  MINIMIZE
Selected objective  name:  Obj
Selected RHS        name:  RHS
Selected bound      name:  Bound
Version identifier: 22.1.2.0 | 2024-11-26 | 0edbb82fd
CPXPARAM_Threads                                 8
CPXPARAM_Parallel                                1
CPXPARAM_MIP_Strategy_StartAlgorithm             2
CPXPARAM_Emphasis_MIP                            5
CPXPARAM_TimeLimit                               10
Tried aggregator 3 times.
MIP Presolve eliminated 88266 rows and 7696 columns.
MIP Presolve modified 93290 coefficients.
Aggregator did 11080 substitutions.
Reduced MIP has 47145 rows, 18685 columns, and 201232 nonzeros.
Reduced MIP has 18685 binaries, 0 generals, 0 SOSs, and 0 indicators.
Presolve time = 0.84 sec. (1435.97 ticks)
Found incumbent of value -33.200000 after 1.05 sec. (1819.77 ticks)
Probing fixed 2456 vars, tightened 0 bounds.
Probing changed sense of 6 constraints.
Probing time = 1.16 sec. (1226.29 ticks)
Tried aggregator 2 times.
MIP Presolve eliminated 9109 rows and 2642 columns.
MIP Presolve modified 5050 coefficients.
Aggregator did 410 substitutions.
Reduced MIP has 37623 rows, 15633 columns, and 145869 nonzeros.
Reduced MIP has 15633 binaries, 0 generals, 0 SOSs, and 0 indicators.
Presolve time = 0.32 sec. (568.73 ticks)
Probing fixed 494 vars, tightened 0 bounds.
Probing time = 0.56 sec. (600.78 ticks)
Tried aggregator 2 times.
Detecting symmetries...
MIP Presolve eliminated 3147 rows and 660 columns.
MIP Presolve modified 588 coefficients.
Aggregator did 651 substitutions.
Reduced MIP has 33825 rows, 14322 columns, and 131337 nonzeros.
Reduced MIP has 14322 binaries, 0 generals, 0 SOSs, and 0 indicators.
Presolve time = 0.29 sec. (517.68 ticks)
Probing time = 0.02 sec. (18.62 ticks)
Clique table members: 87904.
MIP emphasis: heuristic.
MIP search method: dynamic search.
Parallel mode: deterministic, using up to 8 threads.
Root relaxation solution time = 4.93 sec. (8437.00 ticks)

        Nodes                                         Cuts/
   Node  Left     Objective  IInf  Best Integer    Best Bound    ItCnt     Gap

*     0+    0                          -33.2000   -27044.9000              --- 
      0     0      -40.9500  1363      -33.2000      -40.9500    14304   23.34%
Advanced basis not built.

Root node processing (before b&c):
  Real time             =   10.01 sec. (15449.91 ticks)
Parallel b&c, 8 threads:
  Real time             =    0.00 sec. (0.00 ticks)
  Sync time (average)   =    0.00 sec.
  Wait time (average)   =    0.00 sec.
                          ------------
Total (root+branch&cut) =   10.01 sec. (15449.91 ticks)
Gap: 23.34%
Upper bound: -33.2
Lower bound: -40.95
End of CPLEX run. Time: 10.0204 seconds

===== New CPLEX run =====
Instance: /home/yorig/tuner/mpils-tests/instances/miplib/medium-1/neos-3555904-turama.mps
Config: /scratch/yorig/mpils-results-grid-seconds-10-no-mip-start/medium-1/4proc/seed-5/10_neos-3555904-turama_seed-5_20260503_050237/expansion/config_param_CPXPARAM_MIP_Strategy_StartAlgorithm_3_iter_2.prm
========================

Selected objective sense:  MINIMIZE
Selected objective  name:  Obj
Selected RHS        name:  RHS
Selected bound      name:  Bound
Version identifier: 22.1.2.0 | 2024-11-26 | 0edbb82fd
CPXPARAM_Threads                                 8
CPXPARAM_Parallel                                1
CPXPARAM_MIP_Strategy_StartAlgorithm             3
CPXPARAM_Emphasis_MIP                            5
CPXPARAM_TimeLimit                               10
Tried aggregator 3 times.
MIP Presolve eliminated 88266 rows and 7696 columns.
MIP Presolve modified 93290 coefficients.
Aggregator did 11080 substitutions.
Reduced MIP has 47145 rows, 18685 columns, and 201232 nonzeros.
Reduced MIP has 18685 binaries, 0 generals, 0 SOSs, and 0 indicators.
Presolve time = 0.84 sec. (1435.97 ticks)
Found incumbent of value -33.200000 after 1.05 sec. (1819.77 ticks)
Probing fixed 2456 vars, tightened 0 bounds.
Probing changed sense of 6 constraints.
Probing time = 1.12 sec. (1226.29 ticks)
Tried aggregator 2 times.
MIP Presolve eliminated 9109 rows and 2642 columns.
MIP Presolve modified 5050 coefficients.
Aggregator did 410 substitutions.
Reduced MIP has 37623 rows, 15633 columns, and 145869 nonzeros.
Reduced MIP has 15633 binaries, 0 generals, 0 SOSs, and 0 indicators.
Presolve time = 0.32 sec. (568.73 ticks)
Probing fixed 494 vars, tightened 0 bounds.
Probing time = 0.56 sec. (600.78 ticks)
Tried aggregator 2 times.
Detecting symmetries...
MIP Presolve eliminated 3147 rows and 660 columns.
MIP Presolve modified 588 coefficients.
Aggregator did 651 substitutions.
Reduced MIP has 33825 rows, 14322 columns, and 131337 nonzeros.
Reduced MIP has 14322 binaries, 0 generals, 0 SOSs, and 0 indicators.
Presolve time = 0.29 sec. (517.68 ticks)
Probing time = 0.02 sec. (18.62 ticks)
Clique table members: 87904.
MIP emphasis: heuristic.
MIP search method: dynamic search.
Parallel mode: deterministic, using up to 8 threads.
Root relaxation solution time = 1.67 sec. (2430.95 ticks)

        Nodes                                         Cuts/
   Node  Left     Objective  IInf  Best Integer    Best Bound    ItCnt     Gap

*     0+    0                          -33.2000   -27044.9000              --- 
      0     0      -40.9500  1215      -33.2000      -40.9500     8352   23.34%
*     0+   -1                          -34.7000      -40.9500            18.01%
      0     0  -1.00000e+75     0      -34.7000      -40.9500     8352   18.01%
Advanced basis not built.

Root node processing (before b&c):
  Real time             =   10.01 sec. (14354.66 ticks)
Parallel b&c, 8 threads:
  Real time             =    0.00 sec. (0.00 ticks)
  Sync time (average)   =    0.00 sec.
  Wait time (average)   =    0.00 sec.
                          ------------
Total (root+branch&cut) =   10.01 sec. (14354.66 ticks)
Gap: 18.01%
Upper bound: -34.7
Lower bound: -40.95
End of CPLEX run. Time: 10.0165 seconds

===== New CPLEX run =====
Instance: /home/yorig/tuner/mpils-tests/instances/miplib/medium-1/neos-3555904-turama.mps
Config: /scratch/yorig/mpils-results-grid-seconds-10-no-mip-start/medium-1/4proc/seed-5/10_neos-3555904-turama_seed-5_20260503_050237/expansion/config_param_CPXPARAM_MIP_Strategy_StartAlgorithm_4_iter_2.prm
========================

Selected objective sense:  MINIMIZE
Selected objective  name:  Obj
Selected RHS        name:  RHS
Selected bound      name:  Bound
Version identifier: 22.1.2.0 | 2024-11-26 | 0edbb82fd
CPXPARAM_Threads                                 8
CPXPARAM_Parallel                                1
CPXPARAM_MIP_Strategy_StartAlgorithm             4
CPXPARAM_Emphasis_MIP                            5
CPXPARAM_TimeLimit                               10
Tried aggregator 3 times.
MIP Presolve eliminated 88266 rows and 7696 columns.
MIP Presolve modified 93290 coefficients.
Aggregator did 11080 substitutions.
Reduced MIP has 47145 rows, 18685 columns, and 201232 nonzeros.
Reduced MIP has 18685 binaries, 0 generals, 0 SOSs, and 0 indicators.
Presolve time = 0.83 sec. (1435.97 ticks)
Found incumbent of value -33.200000 after 1.05 sec. (1819.77 ticks)
Probing fixed 2456 vars, tightened 0 bounds.
Probing changed sense of 6 constraints.
Probing time = 1.14 sec. (1226.29 ticks)
Tried aggregator 2 times.
MIP Presolve eliminated 9109 rows and 2642 columns.
MIP Presolve modified 5050 coefficients.
Aggregator did 410 substitutions.
Reduced MIP has 37623 rows, 15633 columns, and 145869 nonzeros.
Reduced MIP has 15633 binaries, 0 generals, 0 SOSs, and 0 indicators.
Presolve time = 0.32 sec. (568.73 ticks)
Probing fixed 494 vars, tightened 0 bounds.
Probing time = 0.55 sec. (600.78 ticks)
Tried aggregator 2 times.
Detecting symmetries...
MIP Presolve eliminated 3147 rows and 660 columns.
MIP Presolve modified 588 coefficients.
Aggregator did 651 substitutions.
Reduced MIP has 33825 rows, 14322 columns, and 131337 nonzeros.
Reduced MIP has 14322 binaries, 0 generals, 0 SOSs, and 0 indicators.
Presolve time = 0.29 sec. (517.68 ticks)
Probing time = 0.02 sec. (16.35 ticks)
Clique table members: 87904.
MIP emphasis: heuristic.
MIP search method: dynamic search.
Parallel mode: deterministic, using up to 8 threads.
Root relaxation solution time = 1.24 sec. (1999.49 ticks)

        Nodes                                         Cuts/
   Node  Left     Objective  IInf  Best Integer    Best Bound    ItCnt     Gap

*     0+    0                          -33.2000   -27044.9000              --- 
      0     0      -40.9500  5844      -33.2000      -40.9500       19   23.34%
*     0+   -1                          -34.7000      -40.9500            18.01%
      0     0  -1.00000e+75     0      -34.7000      -40.9500       19   18.01%
Advanced basis not built.

Root node processing (before b&c):
  Real time             =   10.01 sec. (14366.91 ticks)
Parallel b&c, 8 threads:
  Real time             =    0.00 sec. (0.00 ticks)
  Sync time (average)   =    0.00 sec.
  Wait time (average)   =    0.00 sec.
                          ------------
Total (root+branch&cut) =   10.01 sec. (14366.91 ticks)
Gap: 18.01%
Upper bound: -34.7
Lower bound: -40.95
End of CPLEX run. Time: 10.0175 seconds

===== New CPLEX run =====
Instance: /home/yorig/tuner/mpils-tests/instances/miplib/medium-1/neos-3555904-turama.mps
Config: /scratch/yorig/mpils-results-grid-seconds-10-no-mip-start/medium-1/4proc/seed-5/10_neos-3555904-turama_seed-5_20260503_050237/expansion/config_param_CPXPARAM_MIP_Strategy_StartAlgorithm_5_iter_2.prm
========================

Selected objective sense:  MINIMIZE
Selected objective  name:  Obj
Selected RHS        name:  RHS
Selected bound      name:  Bound
Version identifier: 22.1.2.0 | 2024-11-26 | 0edbb82fd
CPXPARAM_Threads                                 8
CPXPARAM_Parallel                                1
CPXPARAM_MIP_Strategy_StartAlgorithm             5
CPXPARAM_Emphasis_MIP                            5
CPXPARAM_TimeLimit                               10
Tried aggregator 3 times.
MIP Presolve eliminated 88266 rows and 7696 columns.
MIP Presolve modified 93290 coefficients.
Aggregator did 11080 substitutions.
Reduced MIP has 47145 rows, 18685 columns, and 201232 nonzeros.
Reduced MIP has 18685 binaries, 0 generals, 0 SOSs, and 0 indicators.
Presolve time = 0.84 sec. (1435.97 ticks)
Found incumbent of value -33.200000 after 1.05 sec. (1819.77 ticks)
Probing fixed 2456 vars, tightened 0 bounds.
Probing changed sense of 6 constraints.
Probing time = 1.14 sec. (1226.29 ticks)
Tried aggregator 2 times.
MIP Presolve eliminated 9109 rows and 2642 columns.
MIP Presolve modified 5050 coefficients.
Aggregator did 410 substitutions.
Reduced MIP has 37623 rows, 15633 columns, and 145869 nonzeros.
Reduced MIP has 15633 binaries, 0 generals, 0 SOSs, and 0 indicators.
Presolve time = 0.32 sec. (568.73 ticks)
Probing fixed 494 vars, tightened 0 bounds.
Probing time = 0.55 sec. (600.78 ticks)
Tried aggregator 2 times.
Detecting symmetries...
MIP Presolve eliminated 3147 rows and 660 columns.
MIP Presolve modified 588 coefficients.
Aggregator did 651 substitutions.
Reduced MIP has 33825 rows, 14322 columns, and 131337 nonzeros.
Reduced MIP has 14322 binaries, 0 generals, 0 SOSs, and 0 indicators.
Presolve time = 0.29 sec. (517.68 ticks)
Probing time = 0.02 sec. (18.62 ticks)
Clique table members: 87904.
MIP emphasis: heuristic.
MIP search method: dynamic search.
Parallel mode: deterministic, using up to 8 threads.
Root relaxation solution time = 4.46 sec. (7108.04 ticks)

        Nodes                                         Cuts/
   Node  Left     Objective  IInf  Best Integer    Best Bound    ItCnt     Gap

*     0+    0                          -33.2000   -27044.9000              --- 
      0     0      -40.9500  3341      -33.2000      -40.9500       14   23.34%
Advanced basis not built.

Root node processing (before b&c):
  Real time             =   10.01 sec. (16073.97 ticks)
Parallel b&c, 8 threads:
  Real time             =    0.00 sec. (0.00 ticks)
  Sync time (average)   =    0.00 sec.
  Wait time (average)   =    0.00 sec.
                          ------------
Total (root+branch&cut) =   10.01 sec. (16073.97 ticks)
Gap: 23.34%
Upper bound: -33.2
Lower bound: -40.95
End of CPLEX run. Time: 10.02 seconds

===== New CPLEX run =====
Instance: /home/yorig/tuner/mpils-tests/instances/miplib/medium-1/neos-3555904-turama.mps
Config: /scratch/yorig/mpils-results-grid-seconds-10-no-mip-start/medium-1/4proc/seed-5/10_neos-3555904-turama_seed-5_20260503_050237/expansion/config_param_CPXPARAM_MIP_Strategy_StartAlgorithm_6_iter_2.prm
========================

Selected objective sense:  MINIMIZE
Selected objective  name:  Obj
Selected RHS        name:  RHS
Selected bound      name:  Bound
Version identifier: 22.1.2.0 | 2024-11-26 | 0edbb82fd
CPXPARAM_Threads                                 8
CPXPARAM_Parallel                                1
CPXPARAM_MIP_Strategy_StartAlgorithm             6
CPXPARAM_Emphasis_MIP                            5
CPXPARAM_TimeLimit                               10
Tried aggregator 3 times.
MIP Presolve eliminated 88266 rows and 7696 columns.
MIP Presolve modified 93290 coefficients.
Aggregator did 11080 substitutions.
Reduced MIP has 47145 rows, 18685 columns, and 201232 nonzeros.
Reduced MIP has 18685 binaries, 0 generals, 0 SOSs, and 0 indicators.
Presolve time = 0.83 sec. (1435.97 ticks)
Found incumbent of value -33.200000 after 1.05 sec. (1819.77 ticks)
Probing fixed 2456 vars, tightened 0 bounds.
Probing changed sense of 6 constraints.
Probing time = 1.12 sec. (1226.29 ticks)
Tried aggregator 2 times.
MIP Presolve eliminated 9109 rows and 2642 columns.
MIP Presolve modified 5050 coefficients.
Aggregator did 410 substitutions.
Reduced MIP has 37623 rows, 15633 columns, and 145869 nonzeros.
Reduced MIP has 15633 binaries, 0 generals, 0 SOSs, and 0 indicators.
Presolve time = 0.32 sec. (568.73 ticks)
Probing fixed 494 vars, tightened 0 bounds.
Probing time = 0.57 sec. (600.78 ticks)
Tried aggregator 2 times.
Detecting symmetries...
MIP Presolve eliminated 3147 rows and 660 columns.
MIP Presolve modified 588 coefficients.
Aggregator did 651 substitutions.
Reduced MIP has 33825 rows, 14322 columns, and 131337 nonzeros.
Reduced MIP has 14322 binaries, 0 generals, 0 SOSs, and 0 indicators.
Presolve time = 0.29 sec. (517.68 ticks)
Probing time = 0.02 sec. (16.92 ticks)
Clique table members: 87904.
MIP emphasis: heuristic.
MIP search method: dynamic search.
Parallel mode: deterministic, using up to 8 threads.
Root relaxation solution time = 1.15 sec. (1414.56 ticks)

        Nodes                                         Cuts/
   Node  Left     Objective  IInf  Best Integer    Best Bound    ItCnt     Gap

*     0+    0                          -33.2000   -27044.9000              --- 
      0     0      -40.9500    62      -33.2000      -40.9500    14915   23.34%
*     0+   -1                          -34.7000      -40.9500            18.01%
      0     0  -1.00000e+75     0      -34.7000      -40.9500    14915   18.01%
Advanced basis not built.

Root node processing (before b&c):
  Real time             =   10.01 sec. (15272.15 ticks)
Parallel b&c, 8 threads:
  Real time             =    0.00 sec. (0.00 ticks)
  Sync time (average)   =    0.00 sec.
  Wait time (average)   =    0.00 sec.
                          ------------
Total (root+branch&cut) =   10.01 sec. (15272.15 ticks)
Gap: 18.01%
Upper bound: -34.7
Lower bound: -40.95
End of CPLEX run. Time: 10.0168 seconds

===== New CPLEX run =====
Instance: /home/yorig/tuner/mpils-tests/instances/miplib/medium-1/neos-3555904-turama.mps
Config: /scratch/yorig/mpils-results-grid-seconds-10-no-mip-start/medium-1/4proc/seed-5/10_neos-3555904-turama_seed-5_20260503_050237/expansion/config_param_CPXPARAM_MIP_Strategy_SubAlgorithm_1_iter_2.prm
========================

Selected objective sense:  MINIMIZE
Selected objective  name:  Obj
Selected RHS        name:  RHS
Selected bound      name:  Bound
Version identifier: 22.1.2.0 | 2024-11-26 | 0edbb82fd
CPXPARAM_Threads                                 8
CPXPARAM_Parallel                                1
CPXPARAM_MIP_Strategy_SubAlgorithm               1
CPXPARAM_Emphasis_MIP                            5
CPXPARAM_TimeLimit                               10
Tried aggregator 3 times.
MIP Presolve eliminated 88266 rows and 7696 columns.
MIP Presolve modified 93290 coefficients.
Aggregator did 11080 substitutions.
Reduced MIP has 47145 rows, 18685 columns, and 201232 nonzeros.
Reduced MIP has 18685 binaries, 0 generals, 0 SOSs, and 0 indicators.
Presolve time = 0.84 sec. (1435.97 ticks)
Found incumbent of value -33.200000 after 1.05 sec. (1819.77 ticks)
Probing fixed 2456 vars, tightened 0 bounds.
Probing changed sense of 6 constraints.
Probing time = 1.16 sec. (1226.29 ticks)
Tried aggregator 2 times.
MIP Presolve eliminated 9109 rows and 2642 columns.
MIP Presolve modified 5050 coefficients.
Aggregator did 410 substitutions.
Reduced MIP has 37623 rows, 15633 columns, and 145869 nonzeros.
Reduced MIP has 15633 binaries, 0 generals, 0 SOSs, and 0 indicators.
Presolve time = 0.32 sec. (568.73 ticks)
Probing fixed 494 vars, tightened 0 bounds.
Probing time = 0.56 sec. (600.78 ticks)
Tried aggregator 2 times.
Detecting symmetries...
MIP Presolve eliminated 3147 rows and 660 columns.
MIP Presolve modified 588 coefficients.
Aggregator did 651 substitutions.
Reduced MIP has 33825 rows, 14322 columns, and 131337 nonzeros.
Reduced MIP has 14322 binaries, 0 generals, 0 SOSs, and 0 indicators.
Presolve time = 0.29 sec. (517.68 ticks)
Probing time = 0.02 sec. (16.92 ticks)
Clique table members: 87904.
MIP emphasis: heuristic.
MIP search method: dynamic search.
Parallel mode: deterministic, using up to 8 threads.
Root relaxation solution time = 1.78 sec. (2087.29 ticks)

        Nodes                                         Cuts/
   Node  Left     Objective  IInf  Best Integer    Best Bound    ItCnt     Gap

*     0+    0                          -33.2000   -27044.9000              --- 
      0     0      -40.9500  6288      -33.2000      -40.9500       18   23.34%
Advanced basis not built.

Root node processing (before b&c):
  Real time             =   10.01 sec. (16506.23 ticks)
Parallel b&c, 8 threads:
  Real time             =    0.00 sec. (0.00 ticks)
  Sync time (average)   =    0.00 sec.
  Wait time (average)   =    0.00 sec.
                          ------------
Total (root+branch&cut) =   10.01 sec. (16506.23 ticks)
Gap: 23.34%
Upper bound: -33.2
Lower bound: -40.95
End of CPLEX run. Time: 10.015 seconds
